NAME: line_31_39
TYPE: TSP
COMMENT: srandom_31_39
DIMENSION: 31
EDGE_WEIGHT_TYPE: EUC_2D
NODE_COORD_SECTION
1 4515 3743
2 2725 436
3 4442 3173
4 675 1737
5 1407 1903
6 3303 3891
7 2290 4817
8 496 2696
9 3400 693
10 2410 3965
11 2739 4653
12 2457 60
13 1595 3782
14 3204 731
15 2080 3455
16 546 4861
17 4803 1075
18 905 2684
19 4389 2064
20 4653 4004
21 4308 2911
22 3724 3477
23 3151 3276
24 4076 2235
25 3374 1887
26 4687 4399
27 4679 3484
28 3809 3659
29 341 423
30 1934 3344
31 3256 2543
